
******************************************************************************
This program contains Ipopt, a library for large-scale nonlinear optimization.
 Ipopt is released as open source code under the Eclipse Public License (EPL).
         For more information visit http://projects.coin-or.org/Ipopt

This version of Ipopt was compiled from source code available at
    https://github.com/IDAES/Ipopt as part of the Institute for the Design of
    Advanced Energy Systems Process Systems Engineering Framework (IDAES PSE
    Framework) Copyright (c) 2018-2019. See https://github.com/IDAES/idaes-pse.

This version of Ipopt was compiled using HSL, a collection of Fortran codes
    for large-scale scientific computation.  All technical papers, sales and
    publicity material resulting from use of the HSL codes within IPOPT must
    contain the following acknowledgement:
        HSL, a collection of Fortran codes for large-scale scientific
        computation. See http://www.hsl.rl.ac.uk.
******************************************************************************

This is Ipopt version 3.13.2, running with linear solver ma27.

Number of nonzeros in equality constraint Jacobian...:      928
Number of nonzeros in inequality constraint Jacobian.:        0
Number of nonzeros in Lagrangian Hessian.............:      806

Total number of variables............................:      403
                     variables with only lower bounds:      124
                variables with lower and upper bounds:      217
                     variables with only upper bounds:        0
Total number of equality constraints.................:      402
Total number of inequality constraints...............:        0
        inequality constraints with only lower bounds:        0
   inequality constraints with lower and upper bounds:        0
        inequality constraints with only upper bounds:        0

iter    objective    inf_pr   inf_du lg(mu)  ||d||  lg(rg) alpha_du alpha_pr  ls
   0  0.0000000e+00 1.17e+00 4.44e-16  -1.0 0.00e+00    -  0.00e+00 0.00e+00   0
   1  5.3930190e-02 1.09e+00 3.99e+04  -1.0 1.99e+05    -  3.11e-01 7.37e-02h  1
   2  9.2937858e-02 1.07e+00 4.05e+04  -1.0 2.40e+05    -  4.75e-01 2.26e-02h  1
   3  1.7715086e+01 3.42e-01 8.87e+04  -1.0 2.37e+05    -  4.81e-01 9.90e-01h  1
   4  2.3003592e+01 5.06e-02 1.97e+03  -1.0 3.56e+04    -  7.58e-01 9.90e-01h  1
   5  2.3156472e+01 1.73e-03 6.68e+02  -1.0 1.50e+03    -  9.84e-01 9.90e-01h  1
   6  2.3163735e+01 1.88e-05 1.35e+01  -1.0 8.50e+01    -  9.90e-01 9.90e-01h  1
   7  2.3307780e+01 7.48e-05 1.04e+04  -1.0 2.19e+03    -  9.90e-01 9.90e-01H  1
   8  2.3160775e+01 2.24e-03 7.67e+07  -3.8 4.22e+03    -  9.76e-01 5.14e-01f  1
   9  2.3158188e+01 1.79e-06 3.15e+04  -3.8 3.66e+01    -  1.00e+00 1.00e+00h  1
In iteration 9, 31 Slacks too small, adjusting variable bounds
iter    objective    inf_pr   inf_du lg(mu)  ||d||  lg(rg) alpha_du alpha_pr  ls
  10  2.3158174e+01 1.99e-10 3.42e+08  -3.8 2.12e-01    -  1.00e+00 1.00e+00h  1
  11  2.3158174e+01 3.82e-12 2.37e-04  -3.8 2.81e-04    -  1.00e+00 1.00e+00h  1
  12  2.3158023e+01 2.00e-12 1.32e+06  -9.0 2.23e+00    -  1.00e+00 9.99e-01F  1
  13  2.3158023e+01 4.83e-12 2.76e-10  -9.0 1.34e-05    -  1.00e+00 1.00e+00h  1

Number of Iterations....: 13

                                   (scaled)                 (unscaled)
Objective...............:   2.3158023089128292e+01    2.3158023089128292e+01
Dual infeasibility......:   2.7648638933897018e-10    2.7648638933897018e-10
Constraint violation....:   4.8290260679095809e-12    4.8290260679095809e-12
Complementarity.........:   9.0909102504265515e-10    9.0909102504265515e-10
Overall NLP error.......:   1.6833156682842597e-10    9.0909102504265515e-10


Number of objective function evaluations             = 19
Number of objective gradient evaluations             = 14
Number of equality constraint evaluations            = 19
Number of inequality constraint evaluations          = 0
Number of equality constraint Jacobian evaluations   = 14
Number of inequality constraint Jacobian evaluations = 0
Number of Lagrangian Hessian evaluations             = 13
Total CPU secs in IPOPT (w/o function evaluations)   =      0.031
Total CPU secs in NLP function evaluations           =      0.257

EXIT: Optimal Solution Found.
